Version identifier: 20.1.0.0 | 2020-11-10 | 9bedb6d68
Tried aggregator 2 times.
MIP Presolve eliminated 871 rows and 495 columns.
MIP Presolve modified 1728 coefficients.
Aggregator did 106 substitutions.
Reduced MIP has 729 rows, 606 columns, and 2325 nonzeros.
Reduced MIP has 144 binaries, 462 generals, 0 SOSs, and 0 indicators.
Presolve time = 0.01 sec. (3.77 ticks)
Found incumbent of value 52.000000 after 0.02 sec. (6.55 ticks)
Probing fixed 20 vars, tightened 156 bounds.
Probing time = 0.00 sec. (0.62 ticks)
Tried aggregator 1 time.
Detecting symmetries...
MIP Presolve eliminated 300 rows and 20 columns.
MIP Presolve modified 44 coefficients.
Reduced MIP has 429 rows, 586 columns, and 1405 nonzeros.
Reduced MIP has 163 binaries, 423 generals, 0 SOSs, and 0 indicators.
Presolve time = 0.00 sec. (1.57 ticks)
Probing time = 0.00 sec. (0.11 ticks)
Clique table members: 1.
MIP emphasis: balance optimality and feasibility.
MIP search method: dynamic search.
Parallel mode: deterministic, using up to 24 threads.
Root relaxation solution time = 0.00 sec. (1.21 ticks)

        Nodes                                         Cuts/
   Node  Left     Objective  IInf  Best Integer    Best Bound    ItCnt     Gap

*     0+    0                           52.0000        0.0000           100.00%
      0     0        0.0000    24       52.0000        0.0000      138  100.00%
      0     0        1.6667    83       52.0000      Cuts: 59      266   96.79%
*     0+    0                           15.0000        1.6667            88.89%
      0     0        2.5000   103       15.0000      Cuts: 51      313   83.33%
      0     0        3.0147   138       15.0000      Cuts: 61      445   79.90%
      0     0        3.3106   110       15.0000      Cuts: 64      530   77.93%
      0     0        3.6429   106       15.0000      Cuts: 45      561   75.71%
      0     0        3.6429   114       15.0000      Cuts: 42      582   75.71%
      0     0        4.1429    61       15.0000   ZeroHalf: 7      595   72.38%
      0     0        4.1429    91       15.0000      Cuts: 37      626   72.38%
*     0+    0                           10.0000        4.1429            58.57%
      0     0        cutoff             10.0000       10.0000      626    0.00%
Elapsed time = 0.15 sec. (58.44 ticks, tree = 0.01 MB, solutions = 3)

Implied bound cuts applied:  7
Mixed integer rounding cuts applied:  13
Zero-half cuts applied:  32
Lift and project cuts applied:  1
Gomory fractional cuts applied:  7

Root node processing (before b&c):
  Real time             =    0.15 sec. (58.50 ticks)
Parallel b&c, 24 threads:
  Real time             =    0.00 sec. (0.00 ticks)
  Sync time (average)   =    0.00 sec.
  Wait time (average)   =    0.00 sec.
                          ------------
Total (root+branch&cut) =    0.15 sec. (58.50 ticks)

Solution status = Optimal
Solution LB = 10
Solution UB = 10
Runtime = 0.160981 seconds
	Command being timed: "/home/min/git_repos/CS598MEBProject/CNT-ILP/build/cnt -s 2 ./output/k6_n20/simC_c1_k6_n20_u1_s3_del02.input-right.cnp"
	User time (seconds): 2.11
	System time (seconds): 0.04
	Percent of CPU this job got: 1212%
	Elapsed (wall clock) time (h:mm:ss or m:ss): 0:00.17
	Average shared text size (kbytes): 0
	Average unshared data size (kbytes): 0
	Average stack size (kbytes): 0
	Average total size (kbytes): 0
	Maximum resident set size (kbytes): 56112
	Average resident set size (kbytes): 0
	Major (requiring I/O) page faults: 0
	Minor (reclaiming a frame) page faults: 11006
	Voluntary context switches: 2061
	Involuntary context switches: 283
	Swaps: 0
	File system inputs: 0
	File system outputs: 16
	Socket messages sent: 0
	Socket messages received: 0
	Signals delivered: 0
	Page size (bytes): 4096
	Exit status: 0
